HUN,8,6,94
4,30,1,21,0,29,2,30,3,28,5,25
4,29,3,25,0,22,5,27,2,21,1,24
4,23,2,27,5,24,3,22,0,26,1,25
2,23,0,27,3,25,5,30,1,24,4,26
2,30,5,27,3,30,0,24,1,24,4,25
4,21,5,21,3,21,2,27,0,24,1,28
2,29,3,21,5,28,4,29,1,24,0,30
4,21,0,28,2,25,1,21,5,28,3,23
